# Solution for model Model5
# Objective value = 587
y[0,0,0] 1
y[0,0,1] 0
y[0,1,0] 0
y[0,1,1] 1
y[1,0,0] 0
y[1,0,1] 1
y[1,1,0] 1
y[1,1,1] 0
y[2,0,0] 0
y[2,0,1] 1
y[2,1,0] 1
y[2,1,1] 0
x[0,0,0,0] 0
x[0,0,0,1] 0
x[0,0,1,0] 0
x[0,0,1,1] 0
x[0,0,2,0] 0
x[0,0,2,1] 1
x[0,1,0,0] 0
x[0,1,0,1] 0
x[0,1,1,0] 0
x[0,1,1,1] 0
x[0,1,2,0] 1
x[0,1,2,1] 1
x[1,0,0,0] 0
x[1,0,0,1] 0
x[1,0,1,0] 0
x[1,0,1,1] 0
x[1,0,2,0] 1
x[1,0,2,1] 0
x[1,1,0,0] 0
x[1,1,0,1] 0
x[1,1,1,0] 0
x[1,1,1,1] 0
x[1,1,2,0] 0
x[1,1,2,1] 1
x[2,0,0,0] 0
x[2,0,0,1] 0
x[2,0,1,0] 0
x[2,0,1,1] 0
x[2,0,2,0] 0
x[2,0,2,1] 0
x[2,1,0,0] 0
x[2,1,0,1] 0
x[2,1,1,0] 0
x[2,1,1,1] 0
x[2,1,2,0] 0
x[2,1,2,1] 0
s[0,0,0] 6.0000000000000318e+02
s[0,0,1] 0
s[0,1,0] 0
s[0,1,1] 5.6400000000000773e+02
s[1,0,0] 0
s[1,0,1] 8.0399999999999011e+02
s[1,1,0] 7.7000000000000011e+02
s[1,1,1] 0
s[2,0,0] 0
s[2,0,1] 5.0100000000000762e+02
s[2,1,0] 480
s[2,1,1] 0
Z_FO 587
C61 1
C62 0
C63 0
C64 1
C65 0
C66 1
